Tried aggregator 2 times.
MIP Presolve eliminated 111 rows and 70 columns.
MIP Presolve added 1 rows and 1 columns.
MIP Presolve modified 19 coefficients.
Aggregator did 11 substitutions.
Reduced MIP has 3 rows, 4 columns, and 9 nonzeros.
Reduced MIP has 3 binaries, 1 generals, 0 SOSs, and 0 indicators.
Probing time =    0.00 sec.
Tried aggregator 1 time.
Presolve time =    0.00 sec.
Found feasible solution after 0.00 sec.  Objective = 140.0000
Probing time =    0.00 sec.
Clique table members: 2.
MIP emphasis: balance optimality and feasibility.
MIP search method: dynamic search.
Parallel mode: none, using 1 thread.
Root relaxation solution time =    0.00 sec.

        Nodes                                         Cuts/
   Node  Left     Objective  IInf  Best Integer    Best Bound    ItCnt     Gap

*     0+    0                          140.0000                      0     --- 
*     0     0      integral     0       60.0000       60.0000        0    0.00%
Elapsed real time =   0.00 sec. (tree size =  0.00 MB, solutions = 1)

Root node processing (before b&c):
  Real time             =    0.00
Sequential b&c:
  Real time             =    0.00
                          -------
Total (root+branch&cut) =    0.00 sec.

Populate: phase II 
Tried aggregator 2 times.
MIP Presolve eliminated 111 rows and 70 columns.
MIP Presolve added 1 rows and 1 columns.
MIP Presolve modified 19 coefficients.
Aggregator did 11 substitutions.
Reduced MIP has 3 rows, 4 columns, and 9 nonzeros.
Reduced MIP has 3 binaries, 1 generals, 0 SOSs, and 0 indicators.
Presolve time =    0.00 sec.
Probing time =    0.00 sec.
Clique table members: 2.
MIP emphasis: balance optimality and feasibility.
MIP search method: dynamic search.
Parallel mode: none, using 1 thread.
Root relaxation solution time =    0.00 sec.

        Nodes                                         Cuts/
   Node  Left     Objective  IInf  Best Integer    Best Bound    ItCnt     Gap

*     0+    0                           60.0000                      0     --- 
      0     0       60.0000     0       60.0000       60.0000        0    0.00%

Root node processing (before b&c):
  Real time             =    0.00
Sequential b&c:
  Real time             =    0.00
                          -------
Total (root+branch&cut) =    0.00 sec.
